
Gurobi 6.5.2 (win64) logging started 07/23/16 02:37:18


Gurobi 6.5.2 (win64) logging started 07/23/16 02:37:18

Optimize a model with 8066 rows, 1003 columns and 18227 nonzeros
Coefficient statistics:
  Matrix range    [4e-06, 1e+03]
  Objective range [1e+00, 1e+00]
  Bounds range    [1e+00, 1e+00]
  RHS range       [1e+00, 1e+03]
Found heuristic solution: objective 315.765
Presolve removed 8039 rows and 976 columns
Presolve time: 0.01s
Presolved: 27 rows, 27 columns, 82 nonzeros
Found heuristic solution: objective 199.6161144
Variable types: 27 continuous, 0 integer (0 binary)

Root relaxation: objective 1.517193e+02, 17 iterations, 0.00 seconds

    Nodes    |    Current Node    |     Objective Bounds      |     Work
 Expl Unexpl |  Obj  Depth IntInf | Incumbent    BestBd   Gap | It/Node Time

*    0     0               0     151.7193135  151.71931  0.00%     -    0s

Explored 0 nodes (17 simplex iterations) in 0.01 seconds
Thread count was 8 (of 8 available processors)

Optimal solution found (tolerance 1.00e-04)
Best objective 1.517193134932e+02, best bound 1.517193134932e+02, gap 0.0%

Wrote requested result file 'H2\instance8\\Results8EC_Sol3.lp'

